(declare-const |havoc:12:62:258:531:540| Int)
(declare-const havoc Int)
(declare-const |__VERIFIER_assert__cond___15':154:169:174:528:537| Int)
(declare-const |havoc:9:61:176:533| Int)
(declare-const |main____CPAchecker_TMP_1':153:167:172:526:535| Int)
(declare-const |main__cp':152:170:175:529:538| Int)
(declare-const __VERIFIER_assert__cond___15 Int)
(declare-const |phi_main____CPAchecker_TMP_1:256:257:530:539| Int)
(declare-const __VERIFIER_assert__cond___16 Int)
(declare-const main____CPAchecker_TMP_1 Int)
(declare-const |havoc:1| Int)
(declare-const |havoc:2| Int)
(declare-const |__VERIFIER_assert__cond___16':155:168:173:527:536| Int)
(declare-const |K:165:166:171:525:534| Int)
(declare-const |havoc:21:63:259:532:541| Int)
(assert (and (<= (+ havoc -1000000) 0) (<= (+ (- havoc) -1000000) 0)
               (<= (+ |havoc:1| -1000000) 0)
               (<= (+ (- |havoc:1|) -1000000) 0)
               (<= (+ |havoc:2| -1000000) 0)
               (<= (+ (- |havoc:2|) -1000000) 0) (< (- havoc) 0)
               (< (- |havoc:1|) 0) (<= (- |havoc:2|) 0) (not (= |havoc:2| 0))
               (<= (+ |havoc:2| (- havoc) 1) 0)
               (not (= (ite (< (+ |havoc:2| (- havoc) -1) 0) 1 0) 0))
               (not (= (ite (<= (+ (- |havoc:2|) 1) 0) 1 0) 0))
               (not (= |havoc:9:61:176:533| 0))
               (not (= (ite (< (+ |havoc:2| (- havoc)) 0) 1 0) 0))
               (not (= (ite (<= (- |havoc:2|) 0) 1 0) 0))
               (or (not (and (<= (- |K:165:166:171:525:534|) 0)
                               (<= |K:165:166:171:525:534| 0)))
                     (= (+ (- main____CPAchecker_TMP_1)
                             |main____CPAchecker_TMP_1':153:167:172:526:535|) 0))
               (or (not (<= (+ (- |K:165:166:171:525:534|) 1) 0))
                     (= |main____CPAchecker_TMP_1':153:167:172:526:535| 0))
               (or (not (and (<= (- |K:165:166:171:525:534|) 0)
                               (<= |K:165:166:171:525:534| 0)))
                     (= (+ (- __VERIFIER_assert__cond___16)
                             |__VERIFIER_assert__cond___16':155:168:173:527:536|) 0))
               (or (not (<= (+ (- |K:165:166:171:525:534|) 1) 0))
                     (= (+ |__VERIFIER_assert__cond___16':155:168:173:527:536|
                             -1) 0))
               (or (not (and (<= (- |K:165:166:171:525:534|) 0)
                               (<= |K:165:166:171:525:534| 0)))
                     (= (+ (- __VERIFIER_assert__cond___15)
                             |__VERIFIER_assert__cond___15':154:169:174:528:537|) 0))
               (or (not (<= (+ (- |K:165:166:171:525:534|) 1) 0))
                     (= (+ |__VERIFIER_assert__cond___15':154:169:174:528:537|
                             -1) 0))
               (or (not (<= (- |K:165:166:171:525:534|) 0))
                     (= (+ |main__cp':152:170:175:529:538|
                             (- |K:165:166:171:525:534|) (- |havoc:2|)) 0))
               (or (and (= |K:165:166:171:525:534| 0)
                          (= (+ __VERIFIER_assert__cond___16
                                  (- |__VERIFIER_assert__cond___16':155:168:173:527:536|)) 0)
                          (= (+ __VERIFIER_assert__cond___15
                                  (- |__VERIFIER_assert__cond___15':154:169:174:528:537|)) 0)
                          (= (+ main____CPAchecker_TMP_1
                                  (- |main____CPAchecker_TMP_1':153:167:172:526:535|)) 0)
                          (= (+ (- |main__cp':152:170:175:529:538|) |havoc:2|) 0))
                     (and (<= (+ (- |K:165:166:171:525:534|) 1) 0)
                            (<= (+ |havoc:2| (- havoc) 2) 0)
                            (<= (+ (- |havoc:2|) 1) 0)
                            (= (+ |__VERIFIER_assert__cond___16':155:168:173:527:536|
                                    -1) 0)
                            (= (+ |__VERIFIER_assert__cond___15':154:169:174:528:537|
                                    -1) 0)
                            (= |main____CPAchecker_TMP_1':153:167:172:526:535| 0)
                            (<= (+ |main__cp':152:170:175:529:538| (- 
                                     havoc) 1) 0)
                            (<= (+ (- |main__cp':152:170:175:529:538|) 2) 0)))
               (<= (- |K:165:166:171:525:534|) 0) (< (- havoc) 0)
               (< (- |main__cp':152:170:175:529:538|) 0)
               (or (and (<= (+ (- |main__cp':152:170:175:529:538|) havoc -1) 0)
                          (<= (+ |main__cp':152:170:175:529:538| (- havoc) 1) 0)
                          (= (+ (- |phi_main____CPAchecker_TMP_1:256:257:530:539|)
                                  |main____CPAchecker_TMP_1':153:167:172:526:535|) 0))
                     (and (or (< (+ |main__cp':152:170:175:529:538| (- 
                                      havoc) 1) 0)
                                (< (+ (- |main__cp':152:170:175:529:538|)
                                        havoc -1) 0))
                            (not (= |havoc:12:62:258:531:540| 0))
                            (= (+ |havoc:12:62:258:531:540|
                                    (- |phi_main____CPAchecker_TMP_1:256:257:530:539|)) 0)))
               (not (= (ite (< (+ |main__cp':152:170:175:529:538| (- havoc)) 0)
                            1 0) 0))
               (not (= (ite (<= (- |main__cp':152:170:175:529:538|) 0) 1 0) 0))
               (not (= (+ |main__cp':152:170:175:529:538| (- havoc) 1) 0))
               (not (= (ite (< (+ |main__cp':152:170:175:529:538| (- havoc) 1) 0)
                            1 0) 0))
               (not (= (ite (<= (+ (- |main__cp':152:170:175:529:538|) -1) 0)
                            1 0) 0))
               (not (= (+ |main__cp':152:170:175:529:538| (- havoc) 2) 0))
               (not (= |havoc:21:63:259:532:541| 0))
               (not (= (ite (< (+ |main__cp':152:170:175:529:538| (- havoc) 1) 0)
                            1 0) 0))
               (= (ite (<= (+ (- |main__cp':152:170:175:529:538|) -1) 0) 1 0) 0)))
(check-sat)
